certificates/rado_a12_c224_N33.cnf
c Rad2 upper bound instance: x1 + 12*x2 - x3 = 224, interval [1,33]
p cnf 33 180
1 5 19 0
-1 -5 -19 0
1 17 20 0
-1 -17 -20 0
1 21 29 0
-1 -21 -29 0
2 6 19 0
-2 -6 -19 0
2 18 20 0
-2 -18 -20 0
2 21 30 0
-2 -21 -30 0
3 7 19 0
-3 -7 -19 0
3 19 20 0
-3 -19 -20 0
3 21 31 0
-3 -21 -31 0
4 8 19 0
-4 -8 -19 0
4 20 0
-4 -20 0
4 21 32 0
-4 -21 -32 0
5 9 19 0
-5 -9 -19 0
5 20 21 0
-5 -20 -21 0
5 21 33 0
-5 -21 -33 0
6 10 19 0
-6 -10 -19 0
6 20 22 0
-6 -20 -22 0
7 11 19 0
-7 -11 -19 0
7 20 23 0
-7 -20 -23 0
8 12 19 0
-8 -12 -19 0
8 20 24 0
-8 -20 -24 0
1 9 18 0
-1 -9 -18 0
9 13 19 0
-9 -13 -19 0
9 20 25 0
-9 -20 -25 0
2 10 18 0
-2 -10 -18 0
10 14 19 0
-10 -14 -19 0
10 20 26 0
-10 -20 -26 0
3 11 18 0
-3 -11 -18 0
11 15 19 0
-11 -15 -19 0
11 20 27 0
-11 -20 -27 0
4 12 18 0
-4 -12 -18 0
12 16 19 0
-12 -16 -19 0
12 20 28 0
-12 -20 -28 0
5 13 18 0
-5 -13 -18 0
13 17 19 0
-13 -17 -19 0
13 20 29 0
-13 -20 -29 0
6 14 18 0
-6 -14 -18 0
14 18 19 0
-14 -18 -19 0
14 20 30 0
-14 -20 -30 0
7 15 18 0
-7 -15 -18 0
15 19 0
-15 -19 0
15 20 31 0
-15 -20 -31 0
8 16 18 0
-8 -16 -18 0
16 19 20 0
-16 -19 -20 0
16 20 32 0
-16 -20 -32 0
9 17 18 0
-9 -17 -18 0
17 19 21 0
-17 -19 -21 0
17 20 33 0
-17 -20 -33 0
10 18 0
-10 -18 0
18 19 22 0
-18 -19 -22 0
11 18 19 0
-11 -18 -19 0
19 23 0
-19 -23 0
12 18 20 0
-12 -18 -20 0
19 20 24 0
-19 -20 -24 0
1 17 21 0
-1 -17 -21 0
13 18 21 0
-13 -18 -21 0
19 21 25 0
-19 -21 -25 0
2 17 22 0
-2 -17 -22 0
14 18 22 0
-14 -18 -22 0
19 22 26 0
-19 -22 -26 0
3 17 23 0
-3 -17 -23 0
15 18 23 0
-15 -18 -23 0
19 23 27 0
-19 -23 -27 0
4 17 24 0
-4 -17 -24 0
16 18 24 0
-16 -18 -24 0
19 24 28 0
-19 -24 -28 0
5 17 25 0
-5 -17 -25 0
17 18 25 0
-17 -18 -25 0
19 25 29 0
-19 -25 -29 0
6 17 26 0
-6 -17 -26 0
18 26 0
-18 -26 0
19 26 30 0
-19 -26 -30 0
7 17 27 0
-7 -17 -27 0
18 19 27 0
-18 -19 -27 0
19 27 31 0
-19 -27 -31 0
8 17 28 0
-8 -17 -28 0
18 20 28 0
-18 -20 -28 0
19 28 32 0
-19 -28 -32 0
9 17 29 0
-9 -17 -29 0
18 21 29 0
-18 -21 -29 0
19 29 33 0
-19 -29 -33 0
10 17 30 0
-10 -17 -30 0
18 22 30 0
-18 -22 -30 0
11 17 31 0
-11 -17 -31 0
18 23 31 0
-18 -23 -31 0
12 17 32 0
-12 -17 -32 0
18 24 32 0
-18 -24 -32 0
1 16 33 0
-1 -16 -33 0
13 17 33 0
-13 -17 -33 0
18 25 33 0
-18 -25 -33 0
