certificates/rado_a12_c224_N33.drat
19 -31 -32 0
-20 24 -33 0
-18 -32 -33 0
-32 -33 0
d -18 -32 -33 0
20 -33 0
-33 0
18 -20 0
-20 32 0
32 0
20 0
-4 0
-16 0
18 0
1 0
-10 0
-26 0
-28 0
-24 0
-2 0
-12 0
-17 0
-9 0
19 0
0
